objective value:                 0.000617620818000097
x_1_2                                               1 	(obj:0)
x_2_1                                               1 	(obj:0)
x_3_2                                               1 	(obj:0)
x_4_4                                               1 	(obj:0)
x_5_2                                               1 	(obj:0)
x_6_1                                               1 	(obj:0)
x_7_1                                               1 	(obj:0)
x_8_4                                               1 	(obj:0)
x_9_2                                               1 	(obj:0)
x_10_2                                              1 	(obj:0)
x_11_1                                              1 	(obj:0)
x_12_2                                              1 	(obj:0)
x_13_4                                              1 	(obj:0)
x_14_1                                              1 	(obj:0)
x_15_4                                              1 	(obj:0)
x_16_2                                              1 	(obj:0)
x_17_1                                              1 	(obj:0)
x_18_1                                              1 	(obj:0)
x_19_2                                              1 	(obj:0)
x_20_4                                              1 	(obj:0)
x_21_1                                              1 	(obj:0)
x_22_4                                              1 	(obj:0)
x_23_2                                              1 	(obj:0)
x_24_4                                              1 	(obj:0)
x_25_2                                              1 	(obj:0)
x_26_4                                              1 	(obj:0)
x_27_1                                              1 	(obj:0)
x_28_4                                              1 	(obj:0)
x_29_1                                              1 	(obj:0)
x_30_2                                              1 	(obj:0)
x_31_2                                              1 	(obj:0)
x_32_1                                              1 	(obj:0)
x_33_4                                              1 	(obj:0)
x_34_4                                              1 	(obj:0)
x_35_2                                              1 	(obj:0)
x_36_4                                              1 	(obj:0)
x_37_1                                              1 	(obj:0)
x_38_4                                              1 	(obj:0)
x_39_2                                              1 	(obj:0)
x_40_4                                              1 	(obj:0)
ind_1                                               1 	(obj:0)
abs_1_4                                             1 	(obj:0)
ind_2                                               1 	(obj:0)
abs_2_1                                             1 	(obj:0)
ind_4                                               1 	(obj:0)
abs_4_2                                             1 	(obj:0)
epsI                             0.000617620818000097 	(obj:1)
SCIP Status        : solving was interrupted [user interrupt]
Total Time         :      42.47
  solving          :      42.45
  presolving       :       2.09 (included in solving)
  reading          :       0.02
  copying          :       0.06 (2 #copies) (minimal 0.02, maximal 0.04, average 0.03)
Original Problem   :
  Problem name     : instances/Pot4_T_40B_1t.txt.spa
  Variables        : 181 (180 binary, 0 integer, 0 implicit integer, 1 continuous)
  Constraints      : 333 initial, 333 maximal
  Objective sense  : maximize
Presolved Problem  :
  Problem name     : t_instances/Pot4_T_40B_1t.txt.spa
  Variables        : 1230 (172 binary, 0 integer, 16 implicit integer, 1042 continuous)
  Constraints      : 4315 initial, 4316 maximal
Presolvers         :   ExecTime  SetupTime  Calls  FixedVars   AggrVars   ChgTypes  ChgBounds   AddHoles    DelCons    AddCons   ChgSides   ChgCoefs
  boundshift       :       0.00       0.00      0          0          0          0          0          0          0          0          0          0
  components       :       0.01       0.00      1          0          0          0          0          0          0          0          0          0
  convertinttobin  :       0.00       0.00      0          0          0          0          0          0          0          0          0          0
  domcol           :       0.01       0.00      1          0          0          0          0          0          0          0          0          0
  dualagg          :       0.00       0.00      0          0          0          0          0          0          0          0          0          0
  dualinfer        :       0.00       0.00      0          0          0          0          0          0          0          0          0          0
  gateextraction   :       0.00       0.00      3          0          0          0          0          0        108         34          0          0
  implfree         :       0.00       0.00      0          0          0          0          0          0          0          0          0          0
  implics          :       0.00       0.00      4          0          0          0          0          0          0          0          0          0
  inttobinary      :       0.00       0.00      0          0          0          0          0          0          0          0          0          0
  redvub           :       0.00       0.00      0          0          0          0          0          0          0          0          0          0
  stuffing         :       0.02       0.00      1          0          0          0          0          0          0          0          0          0
  trivial          :       0.01       0.00      7          0          0          0          0          0          0          0          0          0
  tworowbnd        :       0.00       0.00      0          0          0          0          0          0          0          0          0          0
  dualfix          :       0.00       0.00      7          4          0          0          0          0          0          0          0          0
  genvbounds       :       0.00       0.00      0          0          0          0          0          0          0          0          0          0
  probing          :       0.66       0.00      1          0          0          0          4          0          0          0          0          0
  pseudoobj        :       0.00       0.00      2          0          0          0          0          0          0          0          0          0
  varbound         :       0.00       0.00      9          0          0          0          0          0         28         28          0          0
  setppc           :       0.00       0.00     12          0          0          0          0          0          0          0          0          0
  and              :       0.00       0.00      4          0         12          0          0          0         12          0          0          0
  linear           :       0.12       0.00      9          3          1          0          4          0          7          0         12         12
  logicor          :       0.01       0.00      7          0          0          0          0          0          0          0          0          0
  bounddisjunction :       0.00       0.00      0          0          0          0          0          0          0          0          0          0
  quadratic        :       0.09       0.00      2          0          0          0          0          0          0       4075          0          0
  root node        :          -          -      -          1          -          -         55          -          -          -          -          -
Constraints        :     Number  MaxNumber  #Separate #Propagate    #EnfoLP    #EnfoPS     #Check   #ResProp    Cutoffs    DomReds       Cuts    Applied      Conss   Children
  integral         :          0          0          0          0        376          0        213          0          0       3602          0          0          0        172
  varbound         :       1909       1909        117       8951          0          0         72        715         10       3212          0          0          0          0
  setppc           :        210        210        117       8940          0          0          6        507          6        336          8          0          0          0
  and              :         22         22        138       5608          0          0          4         20          1         61         35          9          0          0
  linear           :       2099       2099        117       8935          0          0          1        188         12       3317       1477        913          0          0
  logicor          :         75+        82        107       1507          0          0          0          9          4         34          1          1          0          0
  bounddisjunction :          0+         6          0        519          0          0          0          0          0          0          0          0          0          0
  countsols        :          0          0          0          0          0          0         90          0          0          0          0          0          0          0
Constraint Timings :  TotalTime  SetupTime   Separate  Propagate     EnfoLP     EnfoPS      Check    ResProp    SB-Prop
  integral         :       6.61       0.00       0.00       0.00       6.61       0.00       0.00       0.00       0.00
  varbound         :       0.56       0.00       0.09       0.39       0.00       0.00       0.00       0.00       0.08
  setppc           :       0.87       0.00       0.00       0.67       0.00       0.00       0.00       0.00       0.20
  and              :       0.02       0.00       0.00       0.01       0.00       0.00       0.00       0.00       0.01
  linear           :       5.71       0.00       3.14       2.21       0.00       0.00       0.00       0.00       0.36
  logicor          :       0.05       0.00       0.00       0.03       0.00       0.00       0.00       0.00       0.02
  bounddisjunction :       0.00       0.00       0.00       0.00       0.00       0.00       0.00       0.00       0.00
  countsols        :       0.00       0.00       0.00       0.00       0.00       0.00       0.00       0.00       0.00
Propagators        : #Propagate   #ResProp    Cutoffs    DomReds
  dualfix          :          2          0          0          0
  genvbounds       :          0          0          0          0
  obbt             :          0          0          0          0
  probing          :          0          0          0          0
  pseudoobj        :       1079          0          0         54
  redcost          :        864          0          0          1
  rootredcost      :          1          0          0          0
  vbounds          :       8621          0          0          0
Propagator Timings :  TotalTime  SetupTime   Presolve  Propagate    ResProp    SB-Prop
  dualfix          :       0.00       0.00       0.00       0.00       0.00       0.00
  genvbounds       :       0.00       0.00       0.00       0.00       0.00       0.00
  obbt             :       0.00       0.00       0.00       0.00       0.00       0.00
  probing          :       0.66       0.00       0.66       0.00       0.00       0.00
  pseudoobj        :       0.01       0.00       0.00       0.01       0.00       0.00
  redcost          :       0.01       0.00       0.00       0.01       0.00       0.00
  rootredcost      :       0.00       0.00       0.00       0.00       0.00       0.00
  vbounds          :       0.01       0.00       0.00       0.01       0.00       0.00
Conflict Analysis  :       Time      Calls    Success    DomReds  Conflicts   Literals    Reconvs ReconvLits   LP Iters
  propagation      :       0.00         21         21          -        213       58.7          5       60.0          -
  infeasible LP    :       0.01          7          0          -          0        0.0          0        0.0          0
  bound exceed. LP :       0.00          0          0          -          0        0.0          0        0.0          0
  strong branching :       0.00          0          0          -          0        0.0          0        0.0          0
  pseudo solution  :       0.00          0          0          -          0        0.0          0        0.0          -
  applied globally :       0.00          -          -          0         16       11.1          -          -          -
  applied locally  :          -          -          -          0          7       37.1          -          -          -
Separators         :   ExecTime  SetupTime      Calls    Cutoffs    DomReds       Cuts    Applied      Conss
  cut pool         :       0.02                   110          -          -       2396          -          -    (maximal pool size: 1201)
  cgmip            :       0.00       0.00          0          0          0          0          0          0
  clique           :       0.06       0.00         87          0          0         65         36          0
  closecuts        :       1.28       0.00          8          0          0        484          0          0
  cmir             :       0.90       0.00         15          0          0        615       1153          0
  disjunctive      :       0.00       0.00          0          0          0          0          0          0
  eccuts           :       0.00       0.00          0          0          0          0          0          0
  flowcover        :       2.41       0.00         22          0          0        250         35          0
  gomory           :       1.18       0.00         15          0          0          4          4          0
  impliedbounds    :       0.03       0.00         87          0          0        677        171          0
  intobj           :       0.00       0.00          0          0          0          0          0          0
  mcf              :       0.00       0.00          1          0          0          0          0          0
  oddcycle         :       0.11       0.00          9          0          0         25         26          0
  rapidlearning    :       0.00       0.00          0          0          0          0          0          0
  strongcg         :       1.86       0.00         30          0          0         80         40          0
  zerohalf         :       0.62       0.00         15          0          0          0          0          0
Pricers            :   ExecTime  SetupTime      Calls       Vars
  problem variables:       0.00          -          0          0
Branching Rules    :   ExecTime  SetupTime   BranchLP  BranchExt   BranchPS    Cutoffs    DomReds       Cuts      Conss   Children
  allfullstrong    :       0.00       0.00          0          0          0          0          0          0          0          0
  cloud            :       0.00       0.00          0          0          0          0          0          0          0          0
  distribution     :       0.00       0.00          0          0          0          0          0          0          0          0
  fullstrong       :       0.00       0.00          0          0          0          0          0          0          0          0
  inference        :       0.00       0.00          0          0          0          0          0          0          0          0
  leastinf         :       0.00       0.00          0          0          0          0          0          0          0          0
  mostinf          :       0.00       0.00          0          0          0          0          0          0          0          0
  multaggr         :       0.00       0.00          0          0          0          0          0          0          0          0
  nodereopt        :       0.00       0.00          0          0          0          0          0          0          0          0
  pscost           :       0.00       0.00          0          0          0          0          0          0          0          0
  random           :       0.00       0.00          0          0          0          0          0          0          0          0
  relpscost        :       6.61       0.00        376          0          0          0       3602          0          0        172
Primal Heuristics  :   ExecTime  SetupTime      Calls      Found       Best
  LP solutions     :       0.00          -          -          0          -
  pseudo solutions :       0.00          -          -          0          -
  strong branching :       0.00          -          -          0          -
  SpaGreedy        :      13.37       0.00         88          1          1
  actconsdiving    :       0.00       0.00          0          0          0
  bound            :       0.00       0.00          1          0          0
  clique           :       0.08       0.00          1          0          0
  coefdiving       :       0.03       0.00          1          0          0
  crossover        :       0.00       0.00          0          0          0
  dins             :       0.00       0.00          0          0          0
  distributiondivin:       0.03       0.00          1          0          0
  dualval          :       0.00       0.00          0          0          0
  feaspump         :       0.05       0.00          1          0          0
  fixandinfer      :       0.00       0.00          0          0          0
  fracdiving       :       0.12       0.00          1          0          0
  guideddiving     :       0.00       0.00          0          0          0
  indicator        :       0.00       0.00          0          0          0
  intdiving        :       0.00       0.00          0          0          0
  intshifting      :       0.05       0.00          3          0          0
  linesearchdiving :       0.00       0.00          0          0          0
  localbranching   :       0.00       0.00          0          0          0
  mutation         :       0.00       0.00          0          0          0
  nlpdiving        :       0.00       0.00          0          0          0
  objpscostdiving  :       0.19       0.00          1          0          0
  octane           :       0.00       0.00          0          0          0
  ofins            :       0.00       0.00          0          0          0
  oneopt           :       0.00       0.00          0          0          0
  proximity        :       0.00       0.00          0          0          0
  pscostdiving     :       0.02       0.00          1          0          0
  randrounding     :       4.04       0.00        139          0          0
  rens             :       1.23       0.00          1          0          0
  reoptsols        :       0.00       0.00          0          0          0
  rins             :       0.00       0.00          0          0          0
  rootsoldiving    :       0.00       0.00          0          0          0
  rounding         :       0.08       0.00        207          0          0
  shiftandpropagate:       0.00       0.00          0          0          0
  shifting         :       0.76       0.00        135          0          0
  simplerounding   :       0.00       0.00          0          0          0
  subnlp           :       0.00       0.00          0          0          0
  trivial          :       0.00       0.00          2          0          0
  trivialnegation  :       0.00       0.00          0          0          0
  trysol           :       0.01       0.00          0          0          0
  twoopt           :       0.00       0.00          0          0          0
  undercover       :       0.00       0.00          1          0          0
  vbounds          :       0.25       0.00          1          0          0
  veclendiving     :       0.03       0.00          1          0          0
  zeroobj          :       1.16       0.00          1          1          1
  zirounding       :       0.05       0.00         86          0          0
  other solutions  :          -          -          -          0          -
Diving Statistics  :      Calls      Nodes   LP Iters Backtracks   MinDepth   MaxDepth   AvgDepth  NLeafSols  MinSolDpt  MaxSolDpt  AvgSolDpt
  actconsdiving    :          0          -          -          -          -          -          -          -          -          -          -
  coefdiving       :          1         21        309          1         37         37       37.0          -          -          -          -
  distributiondivin:          1         10        120          1         29         29       29.0          -          -          -          -
  fracdiving       :          1         29       1285          1         44         44       44.0          -          -          -          -
  guideddiving     :          0          -          -          -          -          -          -          -          -          -          -
  linesearchdiving :          0          -          -          -          -          -          -          -          -          -          -
  pscostdiving     :          1         17        126          1         36         36       36.0          -          -          -          -
  veclendiving     :          1         21        284          1         38         38       38.0          -          -          -          -
LP                 :       Time      Calls Iterations  Iter/call   Iter/sec  Time-0-It Calls-0-It
  primal LP        :       0.02         19          0       0.00       0.00       0.02         19
  dual LP          :       1.35        602      23514      52.49   17417.78       0.01        154
  lex dual LP      :       0.00          0          0       0.00          -
  barrier LP       :       0.00          0          0       0.00          -       0.00          0
  diving/probing LP:       0.45        121       7566      62.53   16813.33
  strong branching :       4.13        688      70062     101.83   16964.16
    (at root node) :          -         26       3208     123.38          -
  conflict analysis:       0.00          0          0       0.00          -
B&B Tree           :
  number of runs   :          1
  nodes            :         88 (86 internal, 2 leaves)
  nodes (total)    :         88 (86 internal, 2 leaves)
  nodes left       :         86
  max depth        :         19
  max depth (total):         19
  backtracks       :          6 (6.8%)
  delayed cutoffs  :          0
  repropagations   :          2 (0 domain reductions, 0 cutoffs)
  avg switch length:       2.06
  switching time   :       0.06
Root Node          :
  First LP value   : +3.00000000000000e+00
  First LP Iters   :        882 (88200.00 Iter/sec)
  First LP Time    :       0.01
  Final Dual Bound : +6.04748469912733e-03
  Final Root Iters :       6379
Solution           :
  Solutions found  :          2 (2 improvements)
  First Solution   : +0.00000000000000e+00   (in run 1, after 0 nodes, 0.38 seconds, depth 0, found by <zeroobj>)
  Gap First Sol.   :   infinite
  Gap Last Sol.    :   infinite
  Primal Bound     : +6.17620818000097e-04   (in run 1, after 1 nodes, 2.25 seconds, depth 0, found by <SpaGreedy>)
  Dual Bound       : +5.23714247843046e-03
  Gap              :     747.95 %
  Avg. Gap         :      93.92 % (3986.97 primal-dual integral)
